 200 62 
 39 42 18 38 13 43 3 65 13 33 94 61 
 8 65 70 79 63 42 60 16 36 14 25 10 
 50 93 81 2 20 85 60 66 11 63 41 74 
 45 61 62 15 94 89 97 53 19 28 25 79 
 95 19 59 4 32 87 64 36 36 86 27 79 
 51 40 
 15 
 6 7 9 10 13 21 24 29 34 35 38 43 
 46 48 59 
 21 
 8 9 11 12 19 21 22 27 28 30 31 32 
 34 37 43 46 53 55 57 59 62 
 49 
 2 3 6 7 8 9 10 11 13 14 16 17 
 18 19 20 21 22 23 24 26 27 28 29 30 
 31 32 34 35 36 38 40 41 42 43 45 46 
 47 48 49 50 53 54 55 56 57 58 59 60 
 62 
 3 
 14 25 61 
 54 
 1 2 3 4 5 6 8 9 10 11 12 13 
 15 16 18 19 20 21 22 23 24 25 26 27 
 28 29 30 31 33 34 35 36 37 38 40 41 
 42 43 45 46 48 49 50 51 52 53 54 55 
 57 58 59 60 61 62 
 54 
 2 3 4 5 6 8 9 10 12 13 14 16 
 17 18 19 20 21 22 23 24 27 28 29 30 
 31 32 33 34 35 36 37 38 39 40 41 42 
 44 45 46 47 48 49 50 51 52 53 54 55 
 56 57 58 59 60 61 
 49 
 1 3 4 5 6 7 8 9 10 11 12 13 
 14 16 17 19 22 23 24 26 28 29 30 31 
 32 33 34 35 36 38 39 40 41 42 43 45 
 46 47 48 49 50 51 53 54 56 57 59 60 
 62 
 43 
 1 2 3 5 6 9 10 11 14 17 18 19 
 20 21 24 26 27 28 30 32 33 35 36 37 
 38 40 41 42 43 44 46 47 48 49 50 52 
 53 54 55 56 57 58 59 
 61 
 1 2 3 4 5 6 7 8 9 10 11 12 
 13 14 15 16 17 18 19 20 21 22 23 24 
 25 26 27 28 29 30 31 32 34 35 36 37 
 38 39 40 41 42 43 44 45 46 47 48 49 
 50 51 52 53 54 55 56 57 58 59 60 61 
 62 
 30 
 2 3 5 7 8 9 10 13 14 18 20 22 
 25 26 28 30 32 35 36 38 40 41 42 47 
 50 56 57 58 59 61 
 22 
 2 3 5 6 11 14 15 22 23 24 29 30 
 31 36 38 40 44 45 50 58 61 62 
 26 
 1 2 5 6 12 15 16 18 21 22 24 25 
 26 28 30 33 38 41 43 44 45 47 49 52 
 57 58 
 28 
 4 6 7 9 14 19 20 22 23 24 26 29 
 30 32 34 36 37 43 45 47 50 51 53 54 
 55 57 60 62 
 22 
 1 3 4 7 9 14 15 17 19 28 30 31 
 35 38 40 41 42 49 55 56 58 59 
 60 
 1 2 3 4 5 6 7 8 9 10 11 12 
 13 14 16 17 18 19 20 21 22 23 24 25 
 26 27 28 29 30 31 32 33 34 35 36 37 
 38 39 40 41 42 43 44 45 46 47 49 50 
 51 52 53 54 55 56 57 58 59 60 61 62 
 56 
 1 2 3 4 5 6 7 8 10 12 13 14 
 15 16 17 18 19 20 23 24 25 26 27 28 
 29 30 31 32 33 34 35 36 37 38 39 40 
 41 42 43 44 45 46 47 48 49 50 51 53 
 54 55 56 57 58 59 60 62 
 42 
 2 3 5 6 7 8 9 14 15 16 17 19 
 21 25 27 28 30 31 32 33 34 35 37 38 
 39 41 43 44 45 46 47 48 50 51 52 53 
 54 56 58 59 60 62 
 60 
 1 2 3 4 5 6 7 8 9 10 11 12 
 13 14 15 17 18 19 20 21 22 23 24 25 
 26 27 28 29 30 31 32 33 34 35 36 37 
 38 39 40 41 43 44 45 46 47 48 49 50 
 51 52 53 54 55 56 57 58 59 60 61 62 
 56 
 1 2 3 4 5 6 8 9 10 11 12 13 
 14 16 17 18 19 20 21 22 24 25 26 27 
 28 29 30 31 32 33 34 35 36 37 38 39 
 41 42 43 44 45 46 47 48 50 51 52 53 
 54 55 56 57 58 59 60 62 
 20 
 2 8 10 20 26 27 33 34 36 38 40 43 
 45 47 49 50 51 53 56 57 
 17 
 4 6 10 18 19 20 22 23 26 34 35 40 
 45 47 53 55 62 
 29 
 1 6 9 11 12 13 15 18 19 20 22 24 
 25 27 32 33 34 36 37 40 42 45 46 48 
 49 51 58 59 60 
 5 
 6 15 21 34 37 
 51 
 1 3 4 5 6 7 8 9 11 14 15 16 
 17 18 19 20 21 22 23 24 25 26 27 29 
 31 32 33 34 35 36 37 38 39 40 41 42 
 43 44 45 48 49 50 51 52 53 54 56 57 
 58 59 61 
 44 
 1 2 4 6 7 9 10 11 12 13 17 18 
 19 20 23 24 25 29 30 31 32 34 35 36 
 37 38 39 40 41 42 43 44 45 46 47 50 
 52 53 54 56 58 59 60 61 
 5 
 10 17 25 30 47 
 61 
 1 2 3 4 5 6 7 8 9 10 11 12 
 13 14 15 16 17 18 19 20 21 22 23 24 
 25 26 27 28 29 30 31 32 33 34 35 36 
 37 38 39 40 41 42 43 44 45 46 47 48 
 49 50 51 52 53 54 56 57 58 59 60 61 
 62 
 45 
 1 3 4 5 6 7 8 10 11 12 14 15 
 17 18 19 20 22 23 26 27 28 31 34 37 
 38 39 40 42 43 44 45 46 47 48 49 51 
 52 53 54 56 57 58 59 61 62 
 54 
 1 2 3 4 6 9 10 11 12 14 15 16 
 17 18 19 20 21 22 23 24 26 28 29 30 
 31 32 33 34 35 36 37 38 40 41 42 43 
 44 45 46 47 48 49 50 51 53 54 55 56 
 57 58 59 60 61 62 
 24 
 6 10 13 14 15 17 23 25 26 27 28 30 
 31 34 35 36 41 44 45 47 52 56 61 62 
 19 
 6 11 12 16 17 19 20 23 26 31 33 34 
 39 40 43 46 48 61 62 
 44 
 2 3 4 5 8 9 10 11 13 14 16 18 
 19 20 21 22 23 24 25 26 28 30 32 34 
 35 36 37 38 39 40 41 44 46 47 48 50 
 51 52 53 55 57 58 61 62 
 22 
 1 3 4 7 8 9 11 12 14 16 19 23 
 25 29 34 37 38 40 49 50 54 61 
 58 
 1 2 4 5 6 7 8 9 10 11 12 13 
 14 15 16 17 18 19 20 21 22 23 24 25 
 26 27 28 29 30 32 33 35 36 37 38 39 
 40 41 42 43 44 45 46 47 49 50 51 52 
 53 54 55 56 57 58 59 60 61 62 
 51 
 2 4 5 6 7 8 9 10 11 12 13 14 
 15 16 17 19 20 21 22 23 25 27 29 31 
 32 33 34 35 36 38 39 40 41 43 44 45 
 47 48 49 50 51 52 54 55 56 57 58 59 
 60 61 62 
 56 
 1 2 3 4 5 6 7 8 9 10 11 12 
 13 14 16 18 19 20 21 22 23 24 25 26 
 27 28 29 30 31 32 33 34 35 38 39 40 
 41 42 43 44 45 46 47 48 49 50 51 52 
 53 54 57 58 59 60 61 62 
 27 
 2 3 4 5 11 13 14 15 19 23 25 26 
 27 30 31 33 42 46 49 50 51 52 53 55 
 57 61 62 
 28 
 3 7 8 9 10 13 14 16 19 23 28 29 
 30 34 35 36 38 40 41 42 44 47 48 54 
 55 58 60 61 
 36 
 1 2 5 9 10 11 14 15 17 18 21 23 
 25 26 27 28 29 30 32 35 36 39 40 41 
 43 45 47 48 50 51 52 53 55 57 59 61 
 16 
 6 7 11 12 13 16 17 18 23 26 36 37 
 40 46 53 54 
 13 
 5 11 12 18 21 26 38 39 41 43 51 55 
 61 
 21 
 3 7 8 10 14 20 24 25 30 31 33 34 
 36 37 38 39 41 44 50 54 58 
 44 
 1 4 7 8 10 11 12 13 15 17 18 20 
 21 22 23 24 25 26 27 29 30 31 32 34 
 37 40 41 45 46 47 48 50 51 52 53 54 
 55 56 57 58 59 60 61 62 
 29 
 1 2 3 4 9 11 12 15 19 20 21 26 
 27 30 31 32 34 36 37 43 44 45 48 50 
 51 53 55 56 61 
 50 
 2 3 4 5 6 7 9 11 12 13 14 16 
 17 19 20 21 23 24 25 26 29 30 31 33 
 35 36 37 38 40 41 42 43 44 45 46 47 
 48 49 50 51 52 53 54 56 57 58 59 60 
 61 62 
 33 
 1 2 4 6 7 8 9 13 14 15 17 19 
 20 21 22 24 25 26 31 34 35 36 37 39 
 41 42 44 45 48 50 52 53 60 
 7 
 7 15 21 24 26 30 40 
 46 
 2 3 4 5 7 8 9 10 11 13 14 16 
 17 18 19 20 21 23 25 26 27 28 29 30 
 31 32 33 34 36 40 42 43 44 45 46 47 
 48 50 51 52 53 56 57 58 60 61 
 55 
 1 2 3 4 5 6 7 8 10 11 12 13 
 14 15 16 17 18 19 21 22 23 24 25 26 
 28 30 31 32 33 34 35 37 38 39 40 41 
 43 44 45 46 47 48 49 50 51 52 53 54 
 55 56 57 58 59 60 62 
 22 
 2 3 4 7 10 11 15 17 24 25 27 28 
 30 31 35 38 49 52 54 56 57 62 
 25 
 1 2 3 5 7 8 15 18 20 21 22 24 
 26 28 35 37 38 44 45 48 51 52 56 57 
 62 
 30 
 1 4 6 8 9 12 13 14 15 16 19 22 
 23 25 26 29 30 35 37 40 41 42 43 46 
 48 50 51 54 56 62 
 7 
 1 4 7 29 45 60 62 
 21 
 10 13 14 16 18 19 21 22 27 28 30 31 
 33 35 36 40 44 47 49 56 62 
 35 
 1 5 6 7 10 12 13 15 16 17 18 20 
 21 25 27 28 31 35 36 37 39 40 41 44 
 47 50 52 53 56 57 58 59 60 61 62 
 47 
 1 2 3 4 6 7 8 10 11 12 13 15 
 18 20 21 22 23 25 26 27 28 30 31 33 
 34 35 36 37 38 40 41 42 44 45 46 48 
 49 50 51 53 55 56 58 59 60 61 62 
 4 
 4 25 38 57 
 10 
 1 14 24 25 45 46 50 53 56 62 
 48 
 1 2 3 4 5 6 7 10 12 13 14 15 
 16 17 19 20 23 24 25 26 27 28 29 31 
 32 33 34 35 36 37 38 39 40 41 42 43 
 45 46 47 50 51 52 53 56 59 60 61 62 
 56 
 1 2 3 4 5 6 7 9 10 11 12 13 
 14 15 16 17 19 20 21 22 23 24 26 27 
 28 29 30 31 32 33 35 37 38 39 40 41 
 42 43 44 46 47 48 49 50 51 52 53 54 
 55 56 57 58 59 60 61 62 
 62 
 1 2 3 4 5 6 7 8 9 10 11 12 
 13 14 15 16 17 18 19 20 21 22 23 24 
 25 26 27 28 29 30 31 32 33 34 35 36 
 37 38 39 40 41 42 43 44 45 46 47 48 
 49 50 51 52 53 54 55 56 57 58 59 60 
 61 62 
 29 
 2 3 4 9 10 12 14 15 17 19 21 22 
 23 25 26 28 30 31 32 33 34 36 40 45 
 51 57 59 61 62 
 10 
 2 6 11 16 23 24 29 38 43 56 
 16 
 4 10 14 17 18 21 30 31 44 46 47 48 
 49 51 52 54 
 3 
 8 17 56 
 61 
 1 2 3 4 5 6 7 8 9 10 11 12 
 13 14 15 16 17 18 19 20 21 22 23 24 
 25 26 27 28 29 30 31 32 33 34 35 36 
 37 38 39 40 41 42 43 44 45 46 47 48 
 49 50 51 52 53 54 55 56 57 59 60 61 
 62 
 5 
 2 6 23 27 43 
 61 
 1 2 3 4 5 6 7 8 9 10 11 12 
 13 14 15 16 17 18 19 20 22 23 24 25 
 26 27 28 29 30 31 32 33 34 35 36 37 
 38 39 40 41 42 43 44 45 46 47 48 49 
 50 51 52 53 54 55 56 57 58 59 60 61 
 62 
 56 
 1 2 3 4 5 6 7 8 9 10 11 12 
 13 14 15 16 17 18 19 20 22 23 24 25 
 26 29 30 31 32 33 34 35 36 37 38 39 
 40 41 42 44 45 46 47 48 49 52 53 54 
 55 56 57 58 59 60 61 62 
 35 
 2 5 7 8 12 13 14 15 16 18 21 22 
 23 24 25 26 27 29 31 33 37 38 41 42 
 43 45 49 50 52 54 55 56 58 59 61 
 55 
 1 2 3 4 5 6 7 8 9 10 11 12 
 13 15 16 17 18 19 21 22 24 25 26 27 
 28 29 30 31 32 33 34 35 36 37 38 39 
 40 41 42 43 44 45 46 47 48 49 50 51 
 53 54 57 58 59 60 61 
 62 
 1 2 3 4 5 6 7 8 9 10 11 12 
 13 14 15 16 17 18 19 20 21 22 23 24 
 25 26 27 28 29 30 31 32 33 34 35 36 
 37 38 39 40 41 42 43 44 45 46 47 48 
 49 50 51 52 53 54 55 56 57 58 59 60 
 61 62 
 34 
 1 4 7 8 9 10 12 14 15 16 17 18 
 20 21 23 24 25 26 29 30 31 32 33 38 
 40 41 43 45 48 52 53 55 56 62 
 2 
 16 28 
 53 
 1 2 3 4 5 6 7 8 9 10 11 12 
 13 14 15 16 17 18 22 23 24 26 27 28 
 29 30 31 32 33 34 35 36 38 39 41 42 
 43 44 45 46 47 48 49 50 52 53 54 55 
 56 57 59 61 62 
 35 
 2 6 7 8 9 10 11 15 16 17 18 19 
 20 21 22 23 24 25 28 29 30 31 36 37 
 40 42 43 44 49 54 55 56 57 59 61 
 6 
 25 26 27 35 44 48 
 48 
 1 2 4 5 7 8 9 10 11 12 13 14 
 15 16 17 18 19 20 21 22 25 26 28 30 
 31 32 33 34 35 37 38 39 40 42 43 44 
 46 48 49 52 53 55 57 58 59 60 61 62 
 35 
 1 3 6 7 8 9 11 13 14 15 16 17 
 21 22 23 24 27 28 29 31 32 33 34 39 
 40 46 48 52 55 56 58 59 60 61 62 
 6 
 2 5 8 24 27 48 
 51 
 1 2 3 4 5 6 7 8 9 10 11 12 
 13 14 16 17 18 20 21 22 23 25 26 27 
 28 30 31 33 34 35 36 37 39 40 41 42 
 43 44 45 46 47 50 53 54 55 56 57 59 
 60 61 62 
 51 
 1 2 3 6 8 9 10 13 14 15 16 17 
 18 19 20 21 23 25 26 27 28 29 30 31 
 32 33 35 36 37 38 39 40 42 43 44 45 
 46 47 49 50 51 52 53 54 55 56 57 58 
 59 61 62 
 11 
 6 9 11 16 22 25 30 40 56 58 60 
 37 
 1 3 5 6 9 11 12 14 15 16 18 19 
 21 22 23 24 25 26 27 28 29 31 32 34 
 39 43 45 46 47 48 49 51 54 58 60 61 
 62 
 29 
 2 4 5 9 10 13 16 17 19 20 22 27 
 28 31 32 33 35 39 40 41 45 47 49 50 
 52 53 56 58 60 
 25 
 1 2 3 6 8 9 10 13 18 19 22 25 
 30 31 34 35 36 39 40 42 47 49 52 57 
 62 
 33 
 1 3 4 7 8 9 10 11 13 17 18 19 
 20 24 26 28 29 31 32 33 34 40 41 42 
 44 49 50 51 53 54 55 61 62 
 28 
 2 3 6 7 8 9 10 12 13 15 22 24 
 26 27 28 33 34 42 49 50 51 52 53 56 
 58 59 60 61 
 11 
 9 12 18 26 30 31 36 45 49 55 59 
 14 
 2 4 16 18 23 27 29 44 45 47 49 52 
 58 59 
 55 
 1 2 3 5 6 7 9 10 11 12 13 14 
 17 18 19 20 21 22 23 24 25 26 27 28 
 29 30 31 32 33 34 35 36 37 38 39 41 
 42 43 44 45 46 47 48 49 50 51 52 53 
 54 55 56 57 58 60 62 
 27 
 2 3 4 6 8 9 10 12 15 17 20 22 
 23 26 30 32 33 37 38 39 48 50 51 52 
 59 60 61 
 9 
 3 10 15 17 21 30 32 48 49 
 31 
 2 4 5 6 8 9 11 14 17 19 20 21 
 23 27 28 29 30 31 36 39 40 41 44 45 
 48 56 57 58 59 60 62 
 37 
 2 3 4 5 8 9 12 14 17 21 22 24 
 25 26 28 29 30 31 32 34 35 36 38 39 
 45 46 47 48 49 51 52 53 54 56 58 59 
 62 
 55 
 1 2 3 4 5 6 7 8 9 10 11 12 
 13 14 16 17 18 19 20 21 23 24 25 26 
 27 28 29 30 31 32 34 35 36 38 39 40 
 41 42 43 44 46 47 48 49 50 52 53 54 
 55 56 58 59 60 61 62 
 60 
 1 2 3 4 6 7 8 9 10 11 12 13 
 14 15 16 17 18 19 20 21 22 23 24 25 
 26 27 28 29 30 31 32 33 34 35 36 37 
 38 39 40 41 42 43 44 45 46 47 48 49 
 50 51 52 53 54 55 56 57 58 59 60 62 
 33 
 1 3 4 5 9 10 14 16 17 18 20 22 
 24 27 28 30 31 34 36 38 40 43 45 46 
 50 52 53 54 55 58 59 60 61 
 52 
 1 2 3 4 5 6 7 9 10 11 12 13 
 14 17 18 19 20 22 23 26 27 28 29 30 
 31 32 33 34 35 36 37 38 39 42 43 44 
 45 46 47 48 49 51 53 54 55 56 57 58 
 59 60 61 62 
 28 
 1 6 7 12 13 15 16 17 19 21 25 29 
 30 31 33 37 40 42 43 44 45 46 48 53 
 55 59 60 62 
 59 
 1 2 3 4 5 6 7 9 10 11 12 13 
 14 15 16 17 18 19 20 21 22 24 25 26 
 27 28 29 30 31 32 33 34 35 36 37 38 
 39 40 41 42 43 44 45 46 47 48 49 50 
 51 52 53 54 55 56 57 58 60 61 62 
 48 
 1 2 3 5 6 7 8 9 11 12 18 19 
 20 21 22 23 24 25 26 27 29 31 32 33 
 35 36 38 39 40 41 43 44 45 47 48 49 
 50 52 53 54 55 56 57 58 59 60 61 62 
 21 
 3 5 6 9 10 13 15 20 25 28 30 31 
 33 36 40 43 48 50 52 57 58 
 44 
 1 2 4 5 6 8 11 12 13 14 15 17 
 18 20 22 24 26 27 28 29 30 31 32 34 
 36 37 40 42 44 45 47 48 50 51 52 53 
 54 55 56 57 58 59 61 62 
 34 
 1 2 3 4 6 7 8 9 11 14 16 17 
 18 24 25 30 31 32 33 34 35 36 37 39 
 41 44 45 47 49 50 58 59 60 62 
 23 
 1 2 6 9 10 11 12 16 17 18 25 26 
 28 29 30 37 41 43 44 51 52 56 61 
 30 
 1 2 4 5 9 11 12 16 18 20 23 24 
 25 26 31 33 34 35 37 40 42 43 47 49 
 50 52 54 55 56 62 
 60 
 1 2 3 4 5 6 7 8 9 10 11 12 
 13 14 15 16 17 18 19 20 22 24 25 26 
 27 28 29 30 31 32 33 34 35 36 37 38 
 39 40 41 42 43 44 45 46 47 48 49 50 
 51 52 53 54 55 56 57 58 59 60 61 62 
 30 
 1 2 3 4 9 12 14 20 23 24 25 26 
 28 29 30 31 32 34 39 40 41 42 43 45 
 47 51 55 56 58 61 
 25 
 3 4 7 8 10 11 13 17 18 20 29 30 
 32 35 36 38 40 47 52 54 55 57 60 61 
 62 
 40 
 1 2 3 4 5 6 9 10 11 13 14 15 
 16 17 18 19 20 25 26 27 28 29 30 31 
 32 34 35 36 37 39 41 42 49 51 52 55 
 58 60 61 62 
 23 
 8 11 14 17 19 21 23 26 28 30 32 37 
 38 43 44 46 47 48 53 54 55 59 61 
 46 
 1 3 4 5 6 7 9 10 11 12 13 14 
 15 16 18 20 21 23 24 25 26 27 28 29 
 30 32 33 34 35 37 38 41 42 43 45 46 
 48 51 52 53 54 55 57 58 59 61 
 18 
 2 5 10 11 12 20 28 32 34 35 39 40 
 41 49 50 55 57 62 
 26 
 1 3 4 6 9 10 12 14 22 23 27 29 
 33 34 35 38 39 41 44 50 51 52 53 56 
 58 62 
 39 
 1 4 5 8 10 11 14 15 17 18 19 22 
 23 24 25 26 28 31 33 34 36 37 39 42 
 45 46 47 48 49 50 51 55 56 57 58 59 
 60 61 62 
 19 
 3 4 6 8 13 15 17 18 23 24 25 28 
 31 41 44 47 48 50 53 
 54 
 2 3 4 5 7 8 9 11 12 14 15 16 
 17 18 19 20 21 22 23 24 25 26 27 28 
 29 30 31 32 33 34 35 36 37 38 39 40 
 41 43 44 45 46 47 48 50 51 52 53 54 
 55 56 57 59 61 62 
 48 
 1 2 4 7 8 9 10 13 14 15 16 17 
 19 20 21 22 23 24 25 26 27 28 29 31 
 32 33 35 36 38 40 41 42 43 45 46 47 
 48 49 50 51 52 54 55 56 59 60 61 62 
 37 
 4 5 6 7 8 9 11 12 14 16 18 19 
 20 21 22 23 26 27 28 29 33 35 39 41 
 44 45 46 48 49 50 52 55 56 57 58 60 
 61 
 43 
 2 3 6 7 8 9 10 13 15 16 17 18 
 19 23 24 25 27 29 30 31 32 33 35 36 
 38 40 41 42 43 45 47 48 49 50 51 52 
 55 57 58 59 60 61 62 
 14 
 13 14 16 20 22 26 30 34 37 43 48 49 
 54 56 
 34 
 1 2 3 5 6 8 9 12 14 15 16 18 
 21 24 26 28 29 31 32 33 36 37 39 42 
 44 45 46 48 51 52 53 56 60 61 
 27 
 1 2 3 4 6 9 11 13 14 15 21 23 
 27 28 31 32 34 36 41 42 45 46 51 52 
 54 59 61 
 45 
 5 6 7 8 9 10 12 13 14 15 16 19 
 21 24 25 26 27 28 29 30 31 32 33 34 
 37 38 39 40 41 42 43 45 46 47 48 49 
 50 52 54 55 56 57 59 60 61 
 14 
 7 10 17 20 21 29 32 44 50 51 52 55 
 56 58 
 56 
 1 2 3 4 5 6 7 8 9 10 12 13 
 14 15 16 18 19 20 21 25 26 27 28 29 
 30 31 32 33 34 35 36 37 38 39 41 42 
 43 44 45 46 47 48 49 50 51 52 53 54 
 55 56 57 58 59 60 61 62 
 53 
 2 4 5 7 8 9 10 11 13 14 15 16 
 17 18 19 20 21 22 23 24 25 26 27 28 
 29 30 31 33 34 35 36 37 38 40 41 42 
 43 44 45 46 47 48 49 51 53 54 55 56 
 57 58 59 60 61 
 47 
 2 3 6 7 8 9 10 11 12 13 14 15 
 16 17 18 21 22 24 25 27 28 29 31 32 
 33 34 35 39 40 41 42 44 47 48 49 50 
 51 52 53 54 55 56 57 58 60 61 62 
 26 
 1 4 6 8 9 15 16 18 20 21 22 24 
 25 32 33 34 38 44 45 46 47 50 55 57 
 58 59 
 57 
 1 2 3 5 6 7 9 11 12 13 14 15 
 16 17 18 19 20 21 22 24 25 26 27 28 
 29 30 31 32 33 34 35 36 37 38 39 40 
 41 42 43 44 45 46 47 48 49 50 51 52 
 53 54 55 56 57 58 59 60 61 
 26 
 2 3 5 6 7 8 10 11 13 16 17 18 
 21 22 23 28 38 39 45 46 52 54 55 56 
 59 62 
 24 
 1 6 8 11 13 18 19 22 24 26 27 28 
 30 34 36 42 44 46 49 52 54 57 59 60 
 57 
 1 2 3 4 5 8 9 10 11 12 13 14 
 15 16 17 18 19 20 21 22 23 24 25 26 
 27 28 29 30 31 32 33 34 35 36 38 39 
 40 41 42 43 44 45 46 47 48 49 50 51 
 52 53 54 55 56 59 60 61 62 
 20 
 8 16 18 22 23 26 30 33 35 36 37 39 
 41 44 46 47 52 56 57 62 
 34 
 2 3 4 7 8 9 11 14 17 18 19 20 
 21 23 26 27 28 30 33 36 37 38 39 40 
 43 45 47 48 50 54 55 56 58 61 
 10 
 2 3 22 24 28 39 48 49 55 61 
 51 
 1 3 4 6 7 9 10 11 12 13 14 15 
 16 17 18 19 20 21 22 24 25 28 29 30 
 31 32 33 34 35 36 37 38 39 41 42 43 
 44 45 47 48 49 50 51 52 53 54 55 56 
 57 58 60 
 7 
 11 27 29 35 42 44 57 
 32 
 2 3 4 6 8 9 13 14 15 17 18 20 
 22 24 25 26 29 30 34 35 36 38 40 41 
 42 43 45 49 50 51 56 57 
 26 
 1 4 10 11 12 18 20 24 28 29 31 32 
 35 36 37 38 41 43 47 49 51 53 56 58 
 60 62 
 27 
 1 3 7 10 11 12 13 16 19 21 23 29 
 33 35 36 39 40 41 45 49 53 54 56 57 
 59 60 61 
 7 
 15 39 48 50 55 60 61 
 7 
 14 16 32 33 52 59 61 
 40 
 1 3 4 5 8 10 11 12 13 14 15 16 
 18 19 20 22 27 28 29 30 32 33 34 35 
 40 43 44 45 48 49 50 54 55 56 57 58 
 59 60 61 62 
 20 
 1 4 9 11 14 15 16 18 27 34 36 37 
 38 39 41 48 52 54 55 61 
 33 
 1 2 4 5 7 8 11 13 14 17 18 19 
 22 23 26 27 29 31 33 36 37 40 44 45 
 46 48 49 51 53 55 56 57 61 
 21 
 1 11 12 13 15 17 23 24 29 30 31 33 
 37 45 46 49 51 56 57 59 60 
 42 
 1 2 3 4 7 8 9 10 11 12 15 17 
 18 19 21 23 24 25 26 27 28 30 33 36 
 37 40 43 45 46 47 48 49 50 51 52 53 
 54 55 57 60 61 62 
 39 
 3 5 7 8 9 10 12 13 14 19 20 21 
 25 27 30 31 32 33 36 37 39 41 42 43 
 44 45 47 48 49 50 51 52 55 57 58 59 
 60 61 62 
 31 
 2 4 5 6 8 10 14 16 17 18 20 21 
 24 25 26 27 29 32 33 34 37 44 45 48 
 52 53 55 56 59 60 62 
 56 
 2 3 4 5 6 7 8 9 10 11 12 13 
 15 16 17 18 19 20 21 22 23 24 25 27 
 28 29 30 31 32 34 35 36 37 38 40 41 
 42 44 45 46 47 48 49 50 51 52 53 54 
 55 56 57 58 59 60 61 62 
 62 
 1 2 3 4 5 6 7 8 9 10 11 12 
 13 14 15 16 17 18 19 20 21 22 23 24 
 25 26 27 28 29 30 31 32 33 34 35 36 
 37 38 39 40 41 42 43 44 45 46 47 48 
 49 50 51 52 53 54 55 56 57 58 59 60 
 61 62 
 54 
 1 2 4 5 6 7 8 9 11 12 13 14 
 15 16 17 18 19 20 21 22 23 24 25 26 
 27 28 30 31 32 34 37 38 39 40 41 42 
 43 44 45 46 47 49 50 51 52 53 54 55 
 56 58 59 60 61 62 
 16 
 1 3 6 9 14 15 21 25 29 31 38 41 
 43 57 59 62 
 31 
 1 3 4 6 8 10 11 16 17 18 19 20 
 22 25 27 30 33 35 38 39 40 43 45 47 
 48 56 57 59 60 61 62 
 8 
 14 25 28 32 37 42 48 55 
 47 
 3 4 5 6 7 11 12 13 15 18 20 21 
 22 24 25 27 28 29 30 31 33 34 35 36 
 37 38 39 41 43 44 45 46 47 48 49 50 
 51 52 53 54 55 56 57 58 59 61 62 
 14 
 2 5 6 7 11 15 23 25 28 42 43 46 
 51 62 
 34 
 1 2 3 6 7 8 10 11 12 13 15 16 
 17 18 20 21 24 26 28 32 33 34 35 38 
 40 41 42 46 50 52 53 56 57 61 
 3 
 4 18 47 
 44 
 1 3 6 7 8 9 11 13 14 16 17 19 
 20 22 23 25 26 27 29 30 34 36 37 38 
 39 40 41 42 43 44 46 49 50 51 52 53 
 54 55 57 58 59 60 61 62 
 35 
 4 5 9 11 12 13 14 16 17 18 19 21 
 22 23 24 25 26 28 29 30 32 34 36 37 
 39 42 43 47 48 51 52 54 57 60 62 
 58 
 1 2 3 4 5 6 7 8 9 10 11 12 
 13 14 15 16 17 18 19 20 21 22 23 24 
 25 26 27 28 29 30 31 32 33 35 37 38 
 39 41 42 43 44 45 46 47 48 49 50 51 
 52 53 54 55 56 57 59 60 61 62 
 24 
 4 10 12 13 18 19 23 26 28 29 30 31 
 32 34 35 36 40 43 44 46 47 48 50 59 
 59 
 1 2 3 4 5 6 7 8 9 10 11 12 
 13 14 15 17 18 19 20 21 22 23 24 25 
 26 27 28 29 30 31 32 33 34 35 36 37 
 38 39 40 41 42 43 44 45 46 47 48 49 
 50 51 52 53 54 55 56 57 59 60 62 
 22 
 4 6 13 15 16 19 25 33 34 35 36 42 
 46 47 50 52 53 56 58 59 60 62 
 41 
 1 2 3 5 6 7 9 10 11 12 13 15 
 16 18 19 20 22 23 25 26 27 28 31 34 
 35 37 38 39 40 42 43 45 46 48 49 50 
 51 52 54 56 62 
 10 
 3 5 10 22 24 27 31 33 43 57 
 2 
 20 26 
 32 
 4 6 8 9 10 11 14 16 18 19 20 21 
 22 23 24 28 30 32 34 35 36 41 43 44 
 45 48 50 51 52 56 57 59 
 40 
 1 2 3 4 7 8 16 17 19 20 21 23 
 24 25 26 27 28 29 30 33 34 37 38 40 
 42 44 45 46 47 48 49 50 51 52 55 56 
 57 58 59 62 
 23 
 2 7 9 12 14 21 25 26 27 35 36 37 
 40 41 42 43 44 50 54 55 56 58 62 
 43 
 2 4 5 6 7 8 11 12 13 15 17 18 
 19 20 22 23 24 26 27 30 31 32 34 35 
 37 40 41 42 44 45 46 47 48 49 50 51 
 53 54 56 58 60 61 62 
 56 
 2 3 4 5 6 7 8 9 10 11 12 13 
 14 15 16 17 18 19 20 21 23 24 25 26 
 27 28 29 31 32 33 34 36 37 38 39 40 
 41 42 43 44 45 46 47 48 49 50 51 52 
 53 54 56 58 59 60 61 62 
 46 
 2 3 7 9 10 12 14 15 16 17 18 20 
 22 23 24 25 27 28 31 32 33 34 36 37 
 38 39 41 43 44 45 46 47 48 49 50 51 
 52 54 55 56 57 58 59 60 61 62 
 34 
 1 3 5 9 13 14 15 17 18 19 20 21 
 25 30 31 32 34 35 36 37 38 41 43 44 
 45 48 52 54 56 57 58 59 60 61 
 4 
 15 20 24 52 
 25 
 5 7 9 15 18 19 20 21 22 25 26 29 
 30 32 37 38 39 41 44 49 51 55 57 58 
 61 
 62 
 1 2 3 4 5 6 7 8 9 10 11 12 
 13 14 15 16 17 18 19 20 21 22 23 24 
 25 26 27 28 29 30 31 32 33 34 35 36 
 37 38 39 40 41 42 43 44 45 46 47 48 
 49 50 51 52 53 54 55 56 57 58 59 60 
 61 62 
 10 
 2 9 13 28 29 41 46 57 58 62 
 7 
 2 4 6 8 18 55 58 
 35 
 3 4 5 6 7 8 9 12 17 21 22 24 
 25 27 29 30 31 32 34 35 36 37 38 39 
 41 42 43 49 50 51 53 56 57 58 62 
 50 
 1 2 3 5 6 7 9 10 11 12 13 15 
 16 17 18 19 20 23 24 25 26 27 29 31 
 32 33 35 36 37 38 39 40 41 43 44 45 
 46 47 49 51 52 53 54 55 56 57 58 59 
 60 62 
 4 
 22 25 35 50 
 50 
 1 2 5 6 7 8 9 10 11 12 13 14 
 15 17 18 20 21 22 24 25 28 29 30 31 
 33 34 35 36 37 38 39 40 41 42 43 44 
 46 47 48 49 51 52 53 54 55 58 59 60 
 61 62 
 36 
 1 2 3 4 5 6 7 8 11 12 13 14 
 15 16 20 22 25 28 32 33 34 35 37 39 
 41 42 43 44 48 49 50 53 54 55 58 62 
 7 
 3 19 24 26 37 40 43 
 54 
 1 3 4 5 6 7 8 9 10 11 12 13 
 14 15 16 17 19 20 21 22 23 24 25 26 
 28 29 30 32 33 34 35 36 37 38 39 40 
 42 43 44 45 46 47 48 50 51 52 53 54 
 55 56 57 59 60 62 
 11 
 5 7 8 19 25 38 39 44 56 58 60 
 10 
 5 8 9 10 12 17 18 23 26 48 
 12 
 4 13 31 32 34 37 45 46 48 49 51 56 
 53 
 1 2 3 4 5 6 7 8 9 10 11 12 
 13 14 15 16 17 18 19 20 21 22 23 24 
 25 26 28 29 30 31 32 33 34 35 36 38 
 39 40 41 42 43 44 45 46 47 50 51 53 
 54 55 56 57 60 
 34 
 3 6 7 10 12 13 15 17 18 21 22 23 
 25 26 30 31 34 35 36 37 38 39 40 41 
 42 44 45 48 51 53 55 58 59 62 
 48 
 1 2 3 4 5 6 9 10 11 12 13 14 
 16 17 18 19 20 21 23 24 25 26 28 30 
 32 34 35 38 39 40 41 42 43 44 45 46 
 49 50 52 54 55 56 57 58 59 60 61 62 
 48 
 1 2 3 4 5 6 8 9 10 12 13 14 
 15 16 17 19 21 23 24 25 26 27 28 29 
 30 31 32 33 34 35 36 39 41 43 44 47 
 48 49 50 51 53 56 57 58 59 60 61 62 
 13 
 2 3 6 21 22 27 34 35 39 42 44 46 
 53 
 27 
 1 4 5 7 11 12 13 16 17 23 24 26 
 27 33 34 36 37 38 43 45 47 49 55 56 
 57 60 61 
 5 
 14 24 39 43 49 
 31 
 3 4 5 6 10 11 16 18 19 20 25 27 
 28 29 31 33 35 37 39 43 44 45 49 50 
 51 53 54 57 58 59 61 
 